c description: Random 3-CNF over 22 variables and 94 clauses
c generator: CNFgen (0.9.2)
c copyright: (C) 2012-2022 Massimo Lauria <massimo.lauria@uniroma1.it>
c url: https://massimolauria.net/cnfgen
c command line: cnfgen --output CNF_4.28/22_bit_94_713.cnf randkcnf 3 22 94
c
p cnf 22 94
1 6 -17 0
-14 18 -22 0
-7 -9 -19 0
-3 -6 -17 0
4 7 -13 0
3 9 -15 0
3 -6 -13 0
-6 -14 19 0
1 6 -13 0
-13 15 19 0
5 13 18 0
2 -6 22 0
-2 -7 -22 0
-2 -4 6 0
15 -19 20 0
6 9 -11 0
-1 -8 10 0
3 -10 22 0
4 17 21 0
7 9 -17 0
1 3 -12 0
1 10 -11 0
-3 -7 10 0
9 -10 14 0
1 8 19 0
3 -8 -10 0
9 12 -15 0
7 13 -21 0
-17 18 -20 0
1 17 20 0
1 6 12 0
5 11 13 0
16 18 22 0
4 9 11 0
-6 14 -19 0
-7 16 -18 0
11 -16 -19 0
9 11 -20 0
8 -15 21 0
-3 -4 6 0
-2 -7 14 0
1 12 -13 0
-8 -11 -13 0
-2 -11 -19 0
5 -15 -19 0
4 -6 -16 0
5 9 -14 0
-11 12 -18 0
15 -19 -21 0
11 12 -14 0
1 -9 20 0
7 -8 17 0
8 11 -16 0
11 12 -17 0
-5 12 15 0
12 13 22 0
2 -13 -18 0
-13 14 21 0
-9 10 -15 0
-6 -9 16 0
3 4 19 0
5 -11 -16 0
4 8 16 0
2 7 -20 0
-1 -12 18 0
6 11 13 0
7 14 18 0
-1 3 -4 0
14 -17 22 0
-7 18 21 0
5 -7 16 0
-11 16 -19 0
17 -18 21 0
2 15 16 0
1 5 -20 0
-6 -8 10 0
-9 19 21 0
-2 -9 -11 0
6 -8 16 0
4 -11 -17 0
-9 17 21 0
-8 10 16 0
-2 -4 -9 0
12 16 -20 0
-10 -13 -22 0
18 -19 21 0
-3 -8 -21 0
-7 12 -16 0
2 -7 -10 0
-9 15 18 0
7 -15 -16 0
6 12 18 0
2 10 -12 0
-4 7 16 0
